TCS_Benchmarks/redos_fix/corpus3_output_distinct_937_936_5_0.txt
(static|protected|internal|abstract|partial|public)+(static|protected|internal|abstract|partial|private)+
(static|protected|internal|abstract|partial|public)+
p.*